
Gurobi 10.0.1 (linux64) logging started Sun Nov 26 15:37:26 2023

Set parameter LogFile to value "ArtificialInstance/ExperimentV2/S2T4K2/BaSp/gurobi1.txt"
Gurobi Optimizer version 10.0.1 build v10.0.1rc0 (linux64)

CPU model: AMD EPYC 7H12 64-Core Processor, instruction set [SSE2|AVX|AVX2]
Thread count: 128 physical cores, 128 logical processors, using up to 32 threads

Academic license 656792 - for non-commercial use only - registered to b.___@student.vu.nl
Optimize a model with 2050 rows, 3120 columns and 10400 nonzeros
Model fingerprint: 0x7d92003e
Variable types: 0 continuous, 3120 integer (3120 binary)
Coefficient statistics:
  Matrix range     [1e+00, 1e+00]
  Objective range  [2e+00, 2e+01]
  Bounds range     [1e+00, 1e+00]
  RHS range        [1e+00, 1e+00]
Found heuristic solution: objective 641.0328958
Presolve time: 0.01s
Presolved: 2050 rows, 3120 columns, 10400 nonzeros
Variable types: 0 continuous, 3120 integer (3120 binary)

Root relaxation: objective 4.083931e+01, 1473 iterations, 0.03 seconds (0.02 work units)

    Nodes    |    Current Node    |     Objective Bounds      |     Work
 Expl Unexpl |  Obj  Depth IntInf | Incumbent    BestBd   Gap | It/Node Time

     0     0   40.83931    0  378  641.03290   40.83931  93.6%     -    0s
H    0     0                     232.7347491   40.83931  82.5%     -    0s
H    0     0                     157.8793545   40.83931  74.1%     -    0s
H    0     0                      79.5713919   40.83931  48.7%     -    0s
H    0     0                      65.0784482   46.85482  28.0%     -    0s
     0     0   46.85482    0  464   65.07845   46.85482  28.0%     -    0s
H    0     0                      58.8345846   46.85482  20.4%     -    0s
     0     0   51.93779    0  524   58.83458   51.93779  11.7%     -    0s
     0     0   51.93937    0  520   58.83458   51.93937  11.7%     -    0s
     0     0   53.53559    0  611   58.83458   53.53559  9.01%     -    0s
     0     0   53.60976    0  592   58.83458   53.60976  8.88%     -    0s
     0     0   53.60976    0  594   58.83458   53.60976  8.88%     -    0s
     0     0   53.94178    0  574   58.83458   53.94178  8.32%     -    0s
     0     0   53.94178    0  374   58.83458   53.94178  8.32%     -    0s
     0     0   53.94178    0  408   58.83458   53.94178  8.32%     -    0s
     0     0   53.94178    0  554   58.83458   53.94178  8.32%     -    0s
     0     0   54.00583    0  525   58.83458   54.00583  8.21%     -    0s
     0     0   54.02136    0  518   58.83458   54.02136  8.18%     -    0s
     0     0   54.31872    0  520   58.83458   54.31872  7.68%     -    0s
     0     0   54.31872    0  519   58.83458   54.31872  7.68%     -    0s
     0     0   54.68652    0  500   58.83458   54.68652  7.05%     -    1s
     0     0   54.69899    0  539   58.83458   54.69899  7.03%     -    1s
     0     0   54.71535    0  509   58.83458   54.71535  7.00%     -    1s
     0     0   54.71624    0  525   58.83458   54.71624  7.00%     -    1s
     0     0   54.96820    0  511   58.83458   54.96820  6.57%     -    1s
     0     0   54.97826    0  428   58.83458   54.97826  6.55%     -    1s
     0     0   54.97920    0  424   58.83458   54.97920  6.55%     -    1s
     0     0   55.11419    0  549   58.83458   55.11419  6.32%     -    1s
     0     0   55.12649    0  559   58.83458   55.12649  6.30%     -    1s
     0     0   55.12707    0  574   58.83458   55.12707  6.30%     -    1s
     0     0   55.26549    0  584   58.83458   55.26549  6.07%     -    1s
     0     0   55.31829    0  624   58.83458   55.31829  5.98%     -    1s
     0     0   55.32524    0  611   58.83458   55.32524  5.96%     -    1s
     0     0   55.32524    0  611   58.83458   55.32524  5.96%     -    1s
     0     0   55.70436    0  568   58.83458   55.70436  5.32%     -    1s
     0     0   58.83458    0  579   58.83458   58.83458  0.00%     -    1s

Cutting planes:
  Gomory: 10
  Clique: 1
  Zero half: 59
  RLT: 50

Explored 1 nodes (11045 simplex iterations) in 1.48 seconds (0.74 work units)
Thread count was 32 (of 128 available processors)

Solution count 6: 58.8346 65.0784 79.5714 ... 641.033

Optimal solution found (tolerance 1.00e-04)
Best objective 5.883458460506e+01, best bound 5.883458460506e+01, gap 0.0000%
